c description: Random 3-CNF over 18 variables and 77 clauses
c generator: CNFgen (0.9.2)
c copyright: (C) 2012-2022 Massimo Lauria <massimo.lauria@uniroma1.it>
c url: https://massimolauria.net/cnfgen
c command line: cnfgen --output CNF_4.28/18_bit_77_387.cnf randkcnf 3 18 77
c
p cnf 18 77
2 10 -13 0
3 -14 18 0
-2 -7 9 0
2 -6 -18 0
12 15 16 0
1 5 -13 0
14 16 17 0
7 -13 -15 0
-9 13 18 0
-3 13 18 0
-4 7 10 0
1 6 -14 0
4 -7 12 0
3 -10 -16 0
10 13 14 0
-12 14 16 0
2 4 -15 0
6 7 -8 0
-4 -6 17 0
2 -7 -16 0
-6 -8 14 0
-6 -11 16 0
5 6 -8 0
-2 11 -16 0
3 -13 -16 0
-2 9 -14 0
10 -13 -17 0
-9 -12 16 0
6 -11 15 0
-8 -10 13 0
-2 7 15 0
1 -10 -17 0
8 -11 -18 0
-3 -6 9 0
-8 -9 10 0
13 15 17 0
3 5 -9 0
-4 -12 -18 0
2 11 13 0
8 12 14 0
-11 12 -15 0
1 7 -11 0
11 -13 14 0
1 5 -8 0
5 -15 16 0
7 8 -14 0
13 14 -17 0
5 -10 -15 0
-10 13 -18 0
1 -4 -6 0
1 12 -17 0
3 -12 18 0
2 11 -13 0
1 -2 -12 0
3 5 -13 0
2 9 -12 0
-6 14 -18 0
2 -10 18 0
-5 9 14 0
9 -10 17 0
-4 -5 12 0
14 -15 18 0
5 -14 17 0
4 10 16 0
-5 -6 13 0
13 -14 18 0
3 -14 -15 0
4 -10 -14 0
-2 -3 7 0
-1 7 -15 0
1 4 -5 0
2 -4 14 0
-4 5 8 0
-3 5 7 0
7 14 17 0
-3 14 -16 0
-2 -16 -18 0
